\ENCODING=ISO-8859-1
\Problem name: IloCplex

Maximize
 obj: 4 x1 + 10 x2 + 5 x3 + 6 x4 + x5
Subject To
 c1:  0.03 x1 + 0.15 x2 + 0.05 x3 + 0.1 x4 <= 400
 c2:  0.06 x1 + 0.12 x2 + 0.1 x4 <= 400
 c3:  0.05 x1 + 0.1 x2 + 0.05 x3 + 0.12 x4 <= 500
 c4:  0.04 x1 + 0.2 x2 + 0.03 x3 + 0.12 x4 <= 450
 c5:  0.02 x1 + 0.06 x2 + 0.02 x3 + 0.12 x4 <= 600
 c6:  2 x2 + 1.2 x4 <= 2000
 c7:  x1 >= 1000
 c8:  x1 <= 6000
 c9:  x2 >= 0
 c10: x2 <= 500
 c11: x3 >= 500
 c12: x3 <= 3000
 c13: x4 >= 100
 c14: x4 <= 1000
Bounds
 0 <= x1 <= 1000000
 0 <= x2 <= 1000000
 0 <= x3 <= 1000000
 0 <= x4 <= 1000000
      x5 = 0
End
